* ENCODING=ISO-8859-1
NAME          CPLEX
ROWS
 N  obj1    
 G  c1      
 G  c2      
 G  c3      
 G  c4      
 G  c5      
 G  c6      
 G  c7      
 G  c8      
 G  c9      
 G  c10     
 G  c11     
 G  c12     
 G  c13     
 G  c14     
 G  c15     
 G  c16     
 G  c17     
 G  c18     
 G  c19     
 G  c20     
 G  c21     
 G  c22     
 G  c23     
 G  c24     
 G  c25     
COLUMNS
    MARK0000  'MARKER'                 'INTORG'
    x1        obj1                            1
    x1        c9                            597
    x2        obj1                            1
    x2        c24                           647
    x2        c25                           516
    x3        obj1                            1
    x3        c3                            614
    x3        c8                            282
    x3        c10                           757
    x3        c14                           945
    x3        c23                           383
    x4        obj1                            1
    x4        c18                           363
    x5        obj1                            1
    x6        obj1                            1
    x6        c4                            424
    x6        c19                           748
    x7        obj1                            1
    x8        obj1                            1
    x8        c17                           384
    x8        c24                           638
    x9        obj1                            1
    x9        c7                            551
    x9        c9                            486
    x9        c14                           341
    x9        c16                           648
    x10       obj1                            1
    x10       c10                           184
    x10       c12                           921
    x10       c15                           597
    x10       c21                           729
    x10       c23                           242
    x10       c24                           480
    x11       obj1                            1
    x11       c8                            830
    x11       c12                           225
    x12       obj1                            1
    x12       c10                           158
    x12       c11                           705
    x13       obj1                            1
    x13       c17                           122
    x14       obj1                            1
    x14       c2                            306
    x14       c3                            183
    x14       c11                           656
    x14       c16                           820
    x14       c22                           347
    x14       c24                           250
    x15       obj1                            1
    x15       c13                           189
    x15       c20                           682
    x16       obj1                            1
    x16       c2                            107
    x16       c6                            571
    x16       c24                           939
    x16       c25                           608
    x17       obj1                            1
    x17       c6                            954
    x17       c12                           518
    x17       c15                           887
    x18       obj1                            1
    x18       c4                            438
    x18       c5                            497
    x18       c7                            370
    x18       c10                           254
    x18       c12                           770
    x19       obj1                            1
    x19       c9                            742
    x19       c23                           505
    x20       obj1                            1
    x20       c1                            895
    x20       c8                            417
    x20       c14                           461
    x21       obj1                            1
    x21       c4                            436
    x21       c6                            862
    x21       c19                           691
    x21       c21                           344
    x22       obj1                            1
    x22       c9                            339
    x22       c17                           267
    x22       c25                           529
    x23       obj1                            1
    x24       obj1                            1
    x24       c3                            548
    x24       c4                            925
    x24       c13                           413
    x24       c14                           797
    x24       c16                           842
    x24       c20                           272
    x24       c22                           594
    x25       obj1                            1
    x25       c8                            853
    x26       obj1                            1
    x26       c13                           544
    x27       obj1                            1
    x27       c18                           963
    x27       c24                           121
    x28       obj1                            1
    x28       c3                            454
    x28       c22                           312
    x28       c23                           829
    x29       obj1                            1
    x29       c20                           815
    x30       obj1                            1
    x30       c18                           825
    x31       obj1                            1
    x31       c6                            488
    x32       obj1                            1
    x32       c3                            628
    x32       c5                            854
    x32       c22                           915
    x33       obj1                            1
    x33       c18                           135
    x33       c20                           466
    x33       c21                           847
    x33       c24                           148
    x34       obj1                            1
    x34       c2                            558
    x34       c3                            611
    x34       c6                            403
    x34       c7                            895
    x34       c12                           462
    x34       c23                           866
    x35       obj1                            1
    x35       c16                           956
    x35       c18                           267
    x35       c19                           361
    x36       obj1                            1
    x36       c1                            417
    x36       c14                           478
    x37       obj1                            1
    x37       c13                           684
    x37       c20                           970
    x38       obj1                            1
    x38       c7                            286
    x38       c8                            185
    x38       c25                           279
    x39       obj1                            1
    x39       c8                            453
    x39       c13                           775
    x39       c15                           228
    x39       c20                           510
    x39       c21                           823
    x40       obj1                            1
    x40       c11                           203
    x40       c20                           311
    x41       obj1                            1
    x41       c10                           674
    x41       c11                           117
    x41       c12                           266
    x41       c13                           124
    x41       c23                           363
    x42       obj1                            1
    x42       c7                            667
    x43       obj1                            1
    x43       c6                            280
    x43       c8                            787
    x43       c14                           699
    x43       c18                           677
    x44       obj1                            1
    x44       c7                            306
    x44       c25                           268
    x45       obj1                            1
    x45       c11                           282
    x45       c19                           100
    x45       c25                           798
    x46       obj1                            1
    x46       c18                           646
    x47       obj1                            1
    x47       c5                            262
    x48       obj1                            1
    x48       c23                           197
    x49       obj1                            1
    x49       c14                           748
    x49       c17                           273
    x50       obj1                            1
    x50       c1                            479
    MARK0001  'MARKER'                 'INTEND'
RHS
    rhs       c1                            896
    rhs       c2                            486
    rhs       c3                           1519
    rhs       c4                           1112
    rhs       c5                            807
    rhs       c6                           1779
    rhs       c7                           1538
    rhs       c8                           1904
    rhs       c9                           1082
    rhs       c10                          1014
    rhs       c11                           982
    rhs       c12                          1581
    rhs       c13                          1365
    rhs       c14                          2235
    rhs       c15                           856
    rhs       c16                          1633
    rhs       c17                           523
    rhs       c18                          1938
    rhs       c19                           950
    rhs       c20                          2013
    rhs       c21                          1372
    rhs       c22                          1084
    rhs       c23                          1693
    rhs       c24                          1612
    rhs       c25                          1499
BOUNDS
 LI bnd       x1        0
 LI bnd       x2        0
 LI bnd       x3        0
 LI bnd       x4        0
 LI bnd       x5        0
 LI bnd       x6        0
 LI bnd       x7        0
 LI bnd       x8        0
 LI bnd       x9        0
 LI bnd       x10       0
 LI bnd       x11       0
 LI bnd       x12       0
 LI bnd       x13       0
 LI bnd       x14       0
 LI bnd       x15       0
 LI bnd       x16       0
 LI bnd       x17       0
 LI bnd       x18       0
 LI bnd       x19       0
 LI bnd       x20       0
 LI bnd       x21       0
 LI bnd       x22       0
 LI bnd       x23       0
 LI bnd       x24       0
 LI bnd       x25       0
 LI bnd       x26       0
 LI bnd       x27       0
 LI bnd       x28       0
 LI bnd       x29       0
 LI bnd       x30       0
 LI bnd       x31       0
 LI bnd       x32       0
 LI bnd       x33       0
 LI bnd       x34       0
 LI bnd       x35       0
 LI bnd       x36       0
 LI bnd       x37       0
 LI bnd       x38       0
 LI bnd       x39       0
 LI bnd       x40       0
 LI bnd       x41       0
 LI bnd       x42       0
 LI bnd       x43       0
 LI bnd       x44       0
 LI bnd       x45       0
 LI bnd       x46       0
 LI bnd       x47       0
 LI bnd       x48       0
 LI bnd       x49       0
 LI bnd       x50       0
ENDATA
